C = 3;
T = 4;
G = 2;
MAXCAP = 10;

% Details of the truck types
cap        = [ 7,     8,     8,     10];
refrig     = [ false, false, true, true];
centsPerKm = [ 267,   280,  304,  330];

% Distances between places. Place 0 is the depot
D = array2d(customers,customers,
    [   0, 877, 896, 573,
      877, 0,  79, 296,
      895, 79,   0, 372,
      572, 296, 372,   0  ]);

% Orders placed by the customers.
order = array2d(goods,customers,
        [| 0, 0, 4, 10,
         | 0, 4, 8, 7  |]);

qweqwe=[|1,1,2,0,7
,|
2,_,3,0,7
,|
2,_,1,0,1
,|
3,_,2,4,1
,|
3,_,1,0,1
,|
3,_,3,2,0
,|
4,_,3,8,0
,|
4,_,1,0,2
,|]